n=20;
max_len=2;
digits_all=[1,2,3,4,5,6,7,8,9,1,0,1,1,1,2,1,3,1,4,1,5,1,6,1,7,1,8,1,9,2,0];
num_digits_all=31;
% missing number: 1
% missing_numbers = [20,8,10,15,9,6,11,13,4,17,12,18,16,2,3,5,7,14,19]
digits_missing=[2,0,8,1,0,1,5,9,6,1,1,1,3,4,1,7,1,2,1,8,1,6,2,3,5,7,1,4,1,9];
num_digits_missing=30;
number_candidates=[{2,20},{20,8},{8},{1,10},{10,1,15},{1,15},{15,5},{9},{6},{1,11},{11,1},{11,1,13},{13,3},{4},{1,17},{17,7},{1,12},{12,2},{1,18},{18,8},{1,16},{16,6},{2},{3},{5},{7},{1,14},{14,4},{1,19},{19,9}];
% Save as find_missing_number2_20_1.dzn

